n_machines = 5;
n_resources = 8;
n_jobs = 160;
horizon = 786;
LB = 157;
n_jobs_per_resource = [20, 20, 20, 20, 20, 20, 20, 20];
duration = [3, 3, 3, 6, 1, 6, 8, 7, 3, 7, 5, 3, 3, 9, 2, 6, 6, 9, 7, 4, 4, 6, 3, 7, 4, 9, 9, 1, 3, 2, 3, 6, 3, 4, 4, 6, 4, 5, 8, 8, 6, 6, 9, 1, 4, 7, 6, 5, 8, 9, 3, 5, 5, 4, 1, 7, 9, 8, 3, 4, 1, 6, 9, 5, 4, 1, 7, 9, 2, 3, 7, 2, 1, 9, 4, 8, 3, 8, 8, 5, 1, 1, 1, 1, 7, 8, 8, 2, 4, 2, 6, 6, 7, 5, 6, 4, 4, 1, 6, 7, 1, 3, 3, 1, 3, 8, 9, 8, 1, 1, 5, 5, 5, 7, 9, 3, 9, 4, 1, 1, 2, 2, 7, 5, 8, 1, 9, 9, 5, 6, 7, 9, 1, 3, 4, 5, 5, 1, 5, 8, 7, 4, 3, 1, 3, 9, 9, 3, 4, 9, 2, 3, 4, 8, 4, 8, 6, 4, 3, 4]